\* PC3 *\
Minimize
OBJ: 16 PCA_IO3000 + 8 PCA_IO3100 + 14 PCA_IO3200 + 8 PCA_IO3210
 + 4 PCA_IO3300 + 8 PCA_IO3310 + 16 PCA_IO3400 + 12 PCA_IO3500 + 44 PCA_IO3510
Subject To
_C1: 16 PCA_IO3000 + 8 PCA_IO3400 + 4 PCA_IO3500 + 24 PCA_IO3510 >= 5000
_C2: 8 PCA_IO3100 + 8 PCA_IO3400 + 4 PCA_IO3500 + 10 PCA_IO3510 >= 1
_C3: 14 PCA_IO3200 + 8 PCA_IO3210 + 4 PCA_IO3500 + 8 PCA_IO3510 >= 5
_C4: 4 PCA_IO3300 + 8 PCA_IO3310 + 2 PCA_IO3510 >= 5
Bounds
0 <= PCA_IO3000
0 <= PCA_IO3100
0 <= PCA_IO3200
0 <= PCA_IO3210
0 <= PCA_IO3300
0 <= PCA_IO3310
0 <= PCA_IO3400
0 <= PCA_IO3500
0 <= PCA_IO3510
Generals
PCA_IO3000
PCA_IO3100
PCA_IO3200
PCA_IO3210
PCA_IO3300
PCA_IO3310
PCA_IO3400
PCA_IO3500
PCA_IO3510
End
